32      2       
20      15      
0       0       0       3       2       3       4       
6       0       1       2       6       11      
7       3       0       1       28      
10      7       0       3       5       7       8       
6       0       7       2       10      14      
5       3       0       1       21      
2       0       6       1       18      
2       0       3       1       9       
7       7       0       3       12      13      20      
6       0       2       1       19      
7       0       6       2       13      23      
8       3       0       1       17      
5       0       3       2       30      31      
10      0       8       2       15      25      
2       1       0       2       16      26      
2       10      0       2       19      29      
3       3       0       3       18      27      29      
6       9       0       1       19      
7       7       0       3       21      22      24      
8       8       0       1       22      
9       0       2       1       30      
4       0       6       1       30      
2       1       0       1       25      
2       0       1       1       31      
10      8       0       1       27      
3       2       0       1       27      
2       0       8       1       28      
5       0       1       1       31      
10      10      0       1       32      
9       0       5       1       32      
9       0       8       1       32      
0       0       0       0       